c description: There is a graph of 7 vertices with a 3-clique and a 3-coloring
c generator: CNFgen (0.9.0)
c copyright: (C) 2012-2020 Massimo Lauria <massimo.lauria@uniroma1.it>
c url: https://massimolauria.net/cnfgen
c
p cnf 63 304
-22 -23 0
-22 -24 0
-22 -25 0
-22 -26 0
-22 -27 0
-22 -28 0
-23 -24 0
-23 -25 0
-23 -26 0
-23 -27 0
-23 -28 0
-24 -25 0
-24 -26 0
-24 -27 0
-24 -28 0
-25 -26 0
-25 -27 0
-25 -28 0
-26 -27 0
-26 -28 0
-27 -28 0
22 23 24 25 26 27 28 0
-29 -30 0
-29 -31 0
-29 -32 0
-29 -33 0
-29 -34 0
-29 -35 0
-30 -31 0
-30 -32 0
-30 -33 0
-30 -34 0
-30 -35 0
-31 -32 0
-31 -33 0
-31 -34 0
-31 -35 0
-32 -33 0
-32 -34 0
-32 -35 0
-33 -34 0
-33 -35 0
-34 -35 0
29 30 31 32 33 34 35 0
-36 -37 0
-36 -38 0
-36 -39 0
-36 -40 0
-36 -41 0
-36 -42 0
-37 -38 0
-37 -39 0
-37 -40 0
-37 -41 0
-37 -42 0
-38 -39 0
-38 -40 0
-38 -41 0
-38 -42 0
-39 -40 0
-39 -41 0
-39 -42 0
-40 -41 0
-40 -42 0
-41 -42 0
36 37 38 39 40 41 42 0
-22 -29 0
-22 -36 0
-29 -36 0
-23 -30 0
-23 -37 0
-30 -37 0
-24 -31 0
-24 -38 0
-31 -38 0
-25 -32 0
-25 -39 0
-32 -39 0
-26 -33 0
-26 -40 0
-33 -40 0
-27 -34 0
-27 -41 0
-34 -41 0
-28 -35 0
-28 -42 0
-35 -42 0
1 -22 -30 0
1 -22 -37 0
1 -29 -23 0
1 -29 -37 0
1 -36 -23 0
1 -36 -30 0
2 -22 -31 0
2 -22 -38 0
2 -29 -24 0
2 -29 -38 0
2 -36 -24 0
2 -36 -31 0
3 -22 -32 0
3 -22 -39 0
3 -29 -25 0
3 -29 -39 0
3 -36 -25 0
3 -36 -32 0
4 -22 -33 0
4 -22 -40 0
4 -29 -26 0
4 -29 -40 0
4 -36 -26 0
4 -36 -33 0
5 -22 -34 0
5 -22 -41 0
5 -29 -27 0
5 -29 -41 0
5 -36 -27 0
5 -36 -34 0
6 -22 -35 0
6 -22 -42 0
6 -29 -28 0
6 -29 -42 0
6 -36 -28 0
6 -36 -35 0
7 -23 -31 0
7 -23 -38 0
7 -30 -24 0
7 -30 -38 0
7 -37 -24 0
7 -37 -31 0
8 -23 -32 0
8 -23 -39 0
8 -30 -25 0
8 -30 -39 0
8 -37 -25 0
8 -37 -32 0
9 -23 -33 0
9 -23 -40 0
9 -30 -26 0
9 -30 -40 0
9 -37 -26 0
9 -37 -33 0
10 -23 -34 0
10 -23 -41 0
10 -30 -27 0
10 -30 -41 0
10 -37 -27 0
10 -37 -34 0
11 -23 -35 0
11 -23 -42 0
11 -30 -28 0
11 -30 -42 0
11 -37 -28 0
11 -37 -35 0
12 -24 -32 0
12 -24 -39 0
12 -31 -25 0
12 -31 -39 0
12 -38 -25 0
12 -38 -32 0
13 -24 -33 0
13 -24 -40 0
13 -31 -26 0
13 -31 -40 0
13 -38 -26 0
13 -38 -33 0
14 -24 -34 0
14 -24 -41 0
14 -31 -27 0
14 -31 -41 0
14 -38 -27 0
14 -38 -34 0
15 -24 -35 0
15 -24 -42 0
15 -31 -28 0
15 -31 -42 0
15 -38 -28 0
15 -38 -35 0
16 -25 -33 0
16 -25 -40 0
16 -32 -26 0
16 -32 -40 0
16 -39 -26 0
16 -39 -33 0
17 -25 -34 0
17 -25 -41 0
17 -32 -27 0
17 -32 -41 0
17 -39 -27 0
17 -39 -34 0
18 -25 -35 0
18 -25 -42 0
18 -32 -28 0
18 -32 -42 0
18 -39 -28 0
18 -39 -35 0
19 -26 -34 0
19 -26 -41 0
19 -33 -27 0
19 -33 -41 0
19 -40 -27 0
19 -40 -34 0
20 -26 -35 0
20 -26 -42 0
20 -33 -28 0
20 -33 -42 0
20 -40 -28 0
20 -40 -35 0
21 -27 -35 0
21 -27 -42 0
21 -34 -28 0
21 -34 -42 0
21 -41 -28 0
21 -41 -35 0
-43 -44 0
-43 -45 0
-44 -45 0
43 44 45 0
-46 -47 0
-46 -48 0
-47 -48 0
46 47 48 0
-49 -50 0
-49 -51 0
-50 -51 0
49 50 51 0
-52 -53 0
-52 -54 0
-53 -54 0
52 53 54 0
-55 -56 0
-55 -57 0
-56 -57 0
55 56 57 0
-58 -59 0
-58 -60 0
-59 -60 0
58 59 60 0
-61 -62 0
-61 -63 0
-62 -63 0
61 62 63 0
-1 -43 -46 0
-1 -44 -47 0
-1 -45 -48 0
-2 -43 -49 0
-2 -44 -50 0
-2 -45 -51 0
-3 -43 -52 0
-3 -44 -53 0
-3 -45 -54 0
-4 -43 -55 0
-4 -44 -56 0
-4 -45 -57 0
-5 -43 -58 0
-5 -44 -59 0
-5 -45 -60 0
-6 -43 -61 0
-6 -44 -62 0
-6 -45 -63 0
-7 -46 -49 0
-7 -47 -50 0
-7 -48 -51 0
-8 -46 -52 0
-8 -47 -53 0
-8 -48 -54 0
-9 -46 -55 0
-9 -47 -56 0
-9 -48 -57 0
-10 -46 -58 0
-10 -47 -59 0
-10 -48 -60 0
-11 -46 -61 0
-11 -47 -62 0
-11 -48 -63 0
-12 -49 -52 0
-12 -50 -53 0
-12 -51 -54 0
-13 -49 -55 0
-13 -50 -56 0
-13 -51 -57 0
-14 -49 -58 0
-14 -50 -59 0
-14 -51 -60 0
-15 -49 -61 0
-15 -50 -62 0
-15 -51 -63 0
-16 -52 -55 0
-16 -53 -56 0
-16 -54 -57 0
-17 -52 -58 0
-17 -53 -59 0
-17 -54 -60 0
-18 -52 -61 0
-18 -53 -62 0
-18 -54 -63 0
-19 -55 -58 0
-19 -56 -59 0
-19 -57 -60 0
-20 -55 -61 0
-20 -56 -62 0
-20 -57 -63 0
-21 -58 -61 0
-21 -59 -62 0
-21 -60 -63 0